(set-info :Origin "This instance was generated by: BanditFuzz-- an RL fuzzer for SMT solvers" )
(set-info :Author "Joe Scott, Fed Mora, Vijay Ganesh" )
(set-info :Contact "Joe Scott, joseph.scott@uwaterloo.ca")
(set-logic QF_BV)
(declare-const bool_0 Bool)
(declare-const bool_1 Bool)
(declare-const bool_2 Bool)
(declare-const bool_3 Bool)
(declare-const bool_4 Bool)
(declare-const bv_0 (_ BitVec 32))
(declare-const bv_1 (_ BitVec 32))
(declare-const bv_2 (_ BitVec 32))
(declare-const bv_3 (_ BitVec 32))
(declare-const bv_4 (_ BitVec 32))
(assert (=> (bvult (bvsub bv_3 #xbd9418c0 ) (bvnor #x7f8400b5  bv_4)) (=> (not true) (or false true))))
(assert (bvsle (bvor (bvsub bv_3 bv_3) (bvsdiv bv_4 bv_0)) (bvlshr (bvsmod bv_0 #xc40e2eca ) (bvxor #x73b91cf8  #xd3b82b3b ))))
(assert (bvuge (bvadd (bvmul bv_3 bv_4) (bvurem bv_1 #x2fc9d0f8 )) (bvmul (bvxor bv_1 #x08d35f32 ) (bvsub #x08eb6ac6  #x249f2136 ))))
(assert (bvsgt (bvlshr (bvashr bv_2 #x1aaffc72 ) (bvor bv_2 #x46a8c924 )) (bvsub (bvxnor bv_0 #xf37e7cf7 ) (bvashr bv_3 #x58e27a5c ))))
(assert (bvsgt (bvurem (bvand #xccb9b04f  #xfc565cff ) (bvsmod bv_1 bv_1)) (bvand (bvsrem bv_1 bv_3) (bvashr #x4b269232  #xa1eaef9b ))))
(check-sat)
(exit)
